12 66
1 2 5
1 3 3
1 4 3
1 5 2
1 6 3
1 7 5
1 8 2
1 9 1
1 10 1
1 11 1
1 12 5
2 3 1
2 4 2
2 5 3
2 6 5
2 7 4
2 8 1
2 9 4
2 10 3
2 11 5
2 12 4
3 4 3
3 5 4
3 6 5
3 7 4
3 8 2
3 9 1
3 10 5
3 11 4
3 12 5
4 5 1
4 6 5
4 7 5
4 8 4
4 9 1
4 10 5
4 11 2
4 12 4
5 6 4
5 7 3
5 8 2
5 9 5
5 10 1
5 11 2
5 12 5
6 7 4
6 8 2
6 9 2
6 10 1
6 11 2
6 12 3
7 8 5
7 9 1
7 10 1
7 11 2
7 12 3
8 9 4
8 10 2
8 11 1
8 12 2
9 10 5
9 11 1
9 12 4
10 11 4
10 12 4
11 12 4
